8
0 279 20 253 321 115 98 247
279 0 374 49 371 246 1 133
20 374 0 10 313 380 352 30
253 49 10 0 344 398 198 180
321 371 313 344 0 298 349 83
115 246 380 398 298 0 345 195
98 1 352 198 349 345 0 342
247 133 30 180 83 195 342 0